0 0 0 0
0 1 0 0
0 2 1 0
0 3 1 0
0 4 1 5
0 5 0 7
0 6 1 10
0 7 2 9
0 8 2 3
0 9 2 25
0 10 1 31
0 11 0 16
0 12 2 19
0 13 1 10
0 14 1 19
0 15 0 13
0 16 2 19
0 17 2 19
0 18 1 26
0 19 2 14
0 20 2 29
0 21 1 26
0 22 1 19
0 23 2 29
0 24 1 34
0 25 0 39
0 26 0 41
0 27 1 35
0 28 1 42
0 29 1 39
0 30 0 42
0 31 0 44
